<number of tasks>
53

<cycle time>
2806

<task times>
1 971
2 142
3 142
4 142
5 103
6 96
7 99
8 1207
9 160
10 180
11 82
12 60
13 112
14 420
15 1556
16 236
17 259
18 125
19 601
20 80
21 80
22 70
23 89
24 89
25 105
26 330
27 132
28 69
29 99
30 70
31 70
32 158
33 191
34 70
35 53
36 50
37 125
38 353
39 70
40 128
41 65
42 1775
43 91
44 91
45 113
46 487
47 138
48 80
49 80
50 65
51 40
52 742
53 1085

<precedence relations>
1,2
1,3
1,4
1,5
1,6
1,7
2,36
3,36
4,9
5,9
6,9
7,9
8,9
9,10
10,11
11,12
12,13
12,14
12,15
13,16
13,17
13,18
14,22
15,16
15,17
16,29
16,30
16,31
17,19
18,42
19,20
19,21
19,22
20,23
21,24
22,25
23,36
24,36
25,26
26,27
27,28
28,29
28,30
28,31
28,32
28,33
28,34
29,35
30,35
31,35
32,35
33,35
34,35
35,36
36,37
37,38
37,39
37,40
38,41
39,41
40,41
41,42
42,43
42,44
42,45
42,46
42,47
43,48
44,49
45,51
45,52
46,50
47,51
47,52
48,51
48,52
49,51
49,52
50,51
50,52
51,53
52,53

<setup times forward>
1,6:107
2,6:107
2,9:107
2,10:107
2,11:107
2,12:107
2,13:107
2,14:41
2,15:107
2,16:107
2,17:107
2,18:37
2,19:37
2,20:37
2,21:37
2,22:37
2,23:37
2,24:37
2,25:37
2,26:37
2,27:37
2,28:37
2,29:37
2,30:37
2,31:37
2,32:37
2,33:37
2,34:37
2,35:37
2,36:37
3,6:107
3,9:107
3,10:107
3,11:107
3,12:107
3,13:107
3,14:41
3,15:107
3,16:107
3,17:107
3,18:37
3,19:37
3,20:37
3,21:37
3,22:37
3,23:37
3,24:37
3,25:37
3,26:37
3,27:37
3,28:37
3,29:37
3,30:37
3,31:37
3,32:37
3,33:37
3,34:37
3,35:37
3,36:37
4,6:107
4,9:107
5,6:107
5,9:107
6,2:107
6,3:107
6,4:107
6,5:107
6,7:107
6,8:107
7,6:107
7,9:107
8,6:107
8,9:107
9,2:107
9,3:107
10,2:107
10,3:107
11,2:107
11,3:107
12,2:107
12,3:107
12,14:148
13,2:107
13,3:107
13,14:148
13,18:70
14,2:41
14,3:41
14,13:148
14,15:148
14,16:148
14,17:148
14,18:78
14,19:78
14,20:78
14,21:78
14,22:78
14,23:78
14,24:78
15,2:107
15,3:107
15,14:148
15,18:70
16,2:107
16,3:107
16,14:148
16,18:70
16,19:70
16,20:70
16,21:70
16,22:70
16,23:70
16,24:70
16,25:70
16,26:70
16,27:70
16,28:70
16,29:70
16,30:70
16,31:70
16,32:70
16,33:70
16,34:70
17,2:107
17,3:107
17,14:148
17,18:70
17,19:70
18,2:37
18,3:37
18,14:78
18,15:70
18,16:70
18,17:70
18,38:11
18,39:11
18,40:11
18,41:11
18,42:11
19,2:37
19,3:37
19,14:78
19,16:70
20,2:37
20,3:37
20,14:78
20,16:70
21,2:37
21,3:37
21,14:78
21,16:70
22,2:37
22,3:37
22,16:70
23,2:37
23,3:37
23,14:78
23,16:70
24,2:37
24,3:37
24,14:78
24,16:70
25,2:37
25,3:37
25,16:70
26,2:37
26,3:37
26,16:70
27,2:37
27,3:37
27,16:70
28,2:37
28,3:37
28,16:70
29,2:37
29,3:37
30,2:37
30,3:37
31,2:37
31,3:37
32,2:37
32,3:37
32,16:70
33,2:37
33,3:37
33,16:70
34,2:37
34,3:37
34,16:70
35,2:37
35,3:37
37,38:11
37,39:11
37,40:11
38,18:11
39,18:11
40,18:11
41,18:11
42,46:86
42,47:86
43,46:86
43,47:86
43,48:86
43,49:86
43,50:86
44,46:86
44,47:86
44,48:86
44,49:86
44,50:86
45,46:86
45,47:86
45,48:86
45,49:86
45,50:86
45,51:86
45,52:86
46,43:86
46,44:86
46,45:86
47,43:86
47,44:86
47,45:86
48,44:86
48,45:86
49,43:86
49,45:86
50,43:86
50,44:86
50,45:86

<setup times backward>
2,14:41
3,14:41
6,1:107
6,2:107
6,3:107
6,4:107
6,5:107
6,7:107
6,8:107
9,1:107
9,2:107
9,3:107
9,4:107
9,5:107
9,7:107
9,8:107
10,1:107
10,2:107
10,3:107
10,4:107
10,5:107
10,7:107
10,8:107
11,1:107
11,2:107
11,3:107
11,4:107
11,5:107
11,7:107
11,8:107
12,1:107
12,2:107
12,3:107
12,4:107
12,5:107
12,7:107
12,8:107
13,1:107
13,2:107
13,3:107
13,4:107
13,5:107
13,7:107
13,8:107
13,14:148
15,1:107
15,2:107
15,3:107
15,4:107
15,5:107
15,7:107
15,8:107
15,14:148
15,18:70
16,1:107
16,2:107
16,3:107
16,4:107
16,5:107
16,7:107
16,8:107
16,14:148
16,18:70
16,19:70
16,20:70
16,21:70
16,22:70
16,23:70
16,24:70
16,25:70
16,26:70
16,27:70
16,28:70
16,32:70
16,33:70
16,34:70
17,1:107
17,2:107
17,3:107
17,4:107
17,5:107
17,7:107
17,8:107
17,14:148
17,18:70
18,1:37
18,2:37
18,3:37
18,4:37
18,5:37
18,7:37
18,8:37
18,14:78
18,38:11
18,39:11
18,40:11
18,41:11
19,1:37
19,2:37
19,3:37
19,4:37
19,5:37
19,7:37
19,8:37
19,14:78
20,1:37
20,2:37
20,3:37
20,4:37
20,5:37
20,7:37
20,8:37
20,14:78
21,1:37
21,2:37
21,3:37
21,4:37
21,5:37
21,7:37
21,8:37
21,14:78
22,1:37
22,2:37
22,3:37
22,4:37
22,5:37
22,7:37
22,8:37
22,14:78
23,1:37
23,2:37
23,3:37
23,4:37
23,5:37
23,7:37
23,8:37
23,14:78
24,1:37
24,2:37
24,3:37
24,4:37
24,5:37
24,7:37
24,8:37
24,14:78
25,1:37
25,2:37
25,3:37
25,4:37
25,5:37
25,7:37
25,8:37
25,14:78
26,1:37
26,2:37
26,3:37
26,4:37
26,5:37
26,7:37
26,8:37
26,14:78
27,1:37
27,2:37
27,3:37
27,4:37
27,5:37
27,7:37
27,8:37
27,14:78
28,1:37
28,2:37
28,3:37
28,4:37
28,5:37
28,7:37
28,8:37
28,14:78
29,1:37
29,2:37
29,3:37
29,4:37
29,5:37
29,7:37
29,8:37
29,14:78
30,1:37
30,2:37
30,3:37
30,4:37
30,5:37
30,7:37
30,8:37
30,14:78
31,1:37
31,2:37
31,3:37
31,4:37
31,5:37
31,7:37
31,8:37
31,14:78
32,1:37
32,2:37
32,3:37
32,4:37
32,5:37
32,7:37
32,8:37
32,14:78
33,1:37
33,2:37
33,3:37
33,4:37
33,5:37
33,7:37
33,8:37
33,14:78
34,1:37
34,2:37
34,3:37
34,4:37
34,5:37
34,7:37
34,8:37
34,14:78
35,1:37
35,2:37
35,3:37
35,4:37
35,5:37
35,7:37
35,8:37
35,14:78
36,1:37
36,2:37
36,3:37
36,4:37
36,5:37
36,7:37
36,8:37
36,14:78
37,1:37
37,2:37
37,3:37
37,4:37
37,5:37
37,7:37
37,8:37
37,14:78
38,1:26
38,2:26
38,3:26
38,4:26
38,5:26
38,7:26
38,8:26
38,14:67
39,1:26
39,2:26
39,3:26
39,4:26
39,5:26
39,7:26
39,8:26
39,14:67
40,1:26
40,2:26
40,3:26
40,4:26
40,5:26
40,7:26
40,8:26
40,14:67
41,1:26
41,2:26
41,3:26
41,4:26
41,5:26
41,7:26
41,8:26
41,14:67
42,1:26
42,2:26
42,3:26
42,4:26
42,5:26
42,7:26
42,8:26
42,14:67
43,1:26
43,2:26
43,3:26
43,4:26
43,5:26
43,7:26
43,8:26
43,14:67
43,46:86
43,47:86
43,49:86
43,50:86
44,1:26
44,2:26
44,3:26
44,4:26
44,5:26
44,7:26
44,8:26
44,14:67
44,46:86
44,47:86
44,48:86
44,50:86
45,1:26
45,2:26
45,3:26
45,4:26
45,5:26
45,7:26
45,8:26
45,14:67
45,46:86
45,47:86
45,48:86
45,49:86
45,50:86

<end>

<optimal SALBP-1 value>
6


<rand seed>
467321153

<Lower Bounds>
Lm1=5
Lms1=5
Lm2=2
Lm3=3
Lm4=5
Best=5

<Optimal Stations (Iterations: 10)>
6
